data/MCDM/NO_CORR/GEN_FROM_60/16_ITEMS_1000_GEN/K5016W12.KNP.mps
NAME          BLANK   
ROWS
 N  OBJROW
 L  R0000000
COLUMNS
    C0000000  OBJROW     -378.         R0000000  196.        
    C0000001  OBJROW     -1000.        R0000000  786.        
    C0000002  OBJROW     -11.          R0000000  673.        
    C0000003  OBJROW     -489.         R0000000  211.        
    C0000004  OBJROW     -857.         R0000000  623.        
    C0000005  OBJROW     -910.         R0000000  119.        
    C0000006  OBJROW     -621.         R0000000  979.        
    C0000007  OBJROW     -253.         R0000000  844.        
    C0000008  OBJROW     -869.         R0000000  740.        
    C0000009  OBJROW     -227.         R0000000  845.        
    C0000010  OBJROW     -955.         R0000000  111.        
    C0000011  OBJROW     -12.          R0000000  427.        
    C0000012  OBJROW     -776.         R0000000  568.        
    C0000013  OBJROW     -697.         R0000000  390.        
    C0000014  OBJROW     -176.         R0000000  77.         
    C0000015  OBJROW     -189.         R0000000  511.        
RHS
    RHS       R0000000  13900.      
BOUNDS
 BV BOUND     C0000000  1.          
 BV BOUND     C0000001  1.          
 BV BOUND     C0000002  1.          
 BV BOUND     C0000003  1.          
 BV BOUND     C0000004  1.          
 BV BOUND     C0000005  1.          
 BV BOUND     C0000006  1.          
 BV BOUND     C0000007  1.          
 BV BOUND     C0000008  1.          
 BV BOUND     C0000009  1.          
 BV BOUND     C0000010  1.          
 BV BOUND     C0000011  1.          
 BV BOUND     C0000012  1.          
 BV BOUND     C0000013  1.          
 BV BOUND     C0000014  1.          
 BV BOUND     C0000015  1.          
ENDATA
