data/MCDM/NO_CORR/GEN_FROM_60/16_ITEMS_1000_GEN/K5016W12.KNP.txt
N 16
M 17
LC 16
LC 17
LC 18
LC 19
LC 20
LC 21
LC 22
LC 23
LC 24
LC 25
LC 26
LC 27
LC 28
LC 29
LC 30
LC 31
LR 1
LR 2
LR 3
LR 4
LR 5
LR 6
LR 7
LR 8
LR 9
LR 10
LR 11
LR 12
LR 13
LR 14
LR 15
LR 16
LR 17
LO -378
LO -1000
LO -11
LO -489
LO -857
LO -910
LO -621
LO -253
LO -869
LO -227
LO -955
LO -12
LO -776
LO -697
LO -176
LO -189
OS 1
IC 90
IC 482
IC 97
IC 722
IC 290
IC 460
IC 975
IC 346
IC 165
IC 894
IC 750
IC 567
IC 229
IC 973
IC 925
IC 859
IB 4412
